\ENCODING=ISO-8859-1
\Problem name: inst_13_cut_n8

Maximize
 obj1: 30 x0 + 28 x1 + 95 x2 + 10 x3 + 82 x4 + 41 x5 + 27 x6
Subject To
 c0:    74 x0 + 2 x1 + 36 x2 + 88 x3 + 77 x4 + 60 x5 + 79 x6 + s0 <= 73
 c1:    76 x0 + 30 x1 + 25 x2 + 91 x3 + 63 x4 + 90 x5 + 95 x6 + s1 <= 152
 c2:    78 x0 + 3 x1 + 44 x2 + 93 x3 + 24 x4 + 2 x5 + 70 x6 + s2 <= 294
 c3:    39 x0 + 31 x1 + 84 x2 + x3 + 52 x4 + 5 x5 + 60 x6 + s3 <= 414
 c4:    63 x0 + 5 x1 + 30 x2 + 82 x3 + 37 x4 + 53 x5 + 68 x6 + s4 <= 513
 c5:    59 x0 + 40 x1 + 89 x2 + 16 x3 + 49 x4 + 71 x5 + 54 x6 + s5 <= 675
 c6:    54 x0 + 30 x1 + 94 x2 + 37 x3 + 84 x4 + 75 x5 + 50 x6 + s6 <= 323
 c7:    69 x0 + 29 x1 + 2 x2 + 42 x3 + 43 x4 + 100 x5 + 47 x6 + s7 <= 463
 c8:    20 x0 + 90 x1 + 5 x2 + 35 x3 + 26 x4 + 50 x5 + 20 x6 + s8 <= 431
 c9:    23 x0 + 91 x1 + 78 x2 + 82 x3 + 43 x4 + 79 x5 + 80 x6 + s9 <= 287
 cut_1: x3 + x4 + x6 <= 0
 cut_2: 13 x0 + 2.22044604925031e-16 x1 + 6 x2 + 16 x3 + 14 x4 + 10 x5 + 14 x6
        <= 13
 cut_3: 50 x0 + x1 + 24 x2 + 60 x3 + 53 x4 + 41 x5 + 54 x6 <= 50
 cut_4: 24 x0 + 1.33226762955019e-15 x1 + 11 x2 + 28 x3 + 25 x4 + 19 x5 + 25 x6
        <= 23
 cut_5: 38 x0 + x1 + 18 x2 + 45 x3 + 40 x4 + 31 x5 + 41 x6 <= 37
 cut_6: 26 x0 + 6.66133814775094e-16 x1 + 13 x2 + 32 x3 + 28 x4 + 21 x5 + 28 x6
        <= 26
 cut_7: 67 x0 + x1 + 32 x2 + 79 x3 + 70 x4 + 54 x5 + 71 x6 <= 66
 cut_8: 32 x0 - 8.88178419700125e-16 x1 + 15 x2 + 38 x3 + 34 x4 + 26 x5 + 34 x6
        <= 32
Bounds
 0 <= x0 <= 1
 0 <= x1 <= 1
 0 <= x2 <= 1
 0 <= x3 <= 1
 0 <= x4 <= 1
 0 <= x5 <= 1
 0 <= x6 <= 1
End
